/* Objective function */

max: 3x11 + 2.2x21 + 2.6x31 + 3.8x41 + 3x51 + 3.8x61 + 3.8x71 + 4.6x81 + 3x91 + 2.6x101 + 2.6x111 + 5.4x12 + 4x22 + 2x32 + 5.4x42 + 10x52 + 7.8x62 + 7.6x72 + 8.2x82 + 5x92 + 6.8x102 + 7.4x112 + 5x13 + 4x23 + 4x33 + 4x43 + 5x53 + 5x63 + 4x73 + 4x83 + 4x93 + 4x103 + 4x113;

/* Constraints */
x11 + x21 + x31 + x41 + x51 + x61 + x71 + x81 + x91 + x101 + x111 <= 4;
x12 + x22 + x32 + x42 + x52 + x62 + x72 + x82 + x92 + x102 + x112 <= 4;
x13 + x23 + x33 + x43 + x53 + x63 + x73 + x83 + x93 + x103 + x113 <= 4;
x11 + x21 + x31 + x41 + x51 + x61 + x71 + x81 + x91 + x101 + x111 >= 3;
x12 + x22 + x32 + x42 + x52 + x62 + x72 + x82 + x92 + x102 + x112 >= 3;
x13 + x23 + x33 + x43 + x53 + x63 + x73 + x83 + x93 + x103 + x113 >= 3;

x11 + x12 + x13 = 1;
x21 + x22 + x23 = 1;
x31 + x32 + x33 = 1;
x41 + x42 + x43 = 1;
x51 + x52 + x53 = 1;
x61 + x62 + x63 = 1;
x71 + x72 + x73 = 1;
x81 + x82 + x83 = 1;
x91 + x92 + x93 = 1;
x101 + x102 + x103 = 1;
x111 + x112 + x113 = 1;